
Gurobi 8.0.1 (linux64, Python) logging started Mon Apr 15 17:46:42 2019


Gurobi 8.0.1 (linux64, Python) logging started Mon Apr 15 17:57:05 2019


Gurobi 8.0.1 (linux64, Python) logging started Mon Apr 15 18:05:22 2019

Academic license - for non-commercial use only

Gurobi 8.0.1 (linux64, Python) logging started Mon Apr 15 18:08:05 2019


Gurobi 8.0.1 (linux64, Python) logging started Mon Apr 15 18:12:44 2019


Gurobi 8.0.1 (linux64, Python) logging started Mon Apr 15 18:14:29 2019


Gurobi 8.0.1 (linux64, Python) logging started Mon Apr 15 18:16:31 2019

Academic license - for non-commercial use only

Gurobi 8.0.1 (linux64, Python) logging started Tue Apr 16 13:25:56 2019

